2025-10-21 23:13:15,021 - INFO - 📌 第一个 epoch：默认所有模块使用 checkpoint
2025-10-21 23:13:35,064 - INFO - Epoch 1 completed in 20.069312 seconds
2025-10-21 23:16:47,659 - INFO - torch.cuda.max_memory_reserved() : 0.919921875
2025-10-21 23:17:07,476 - INFO - 
[🔁 拟合反向传播时间模型]
2025-10-21 23:17:07,476 - INFO - 总反向传播时间: 19.527237s
2025-10-21 23:17:07,476 - INFO - 拟合模型: backward_total ≈ 2 × (A + B) + b
2025-10-21 23:17:07,476 - INFO - A = 11.232983, B = 1.037812, b = 7.256443s
2025-10-21 23:17:07,522 - INFO - Set parameter LicenseID to value 2706656
2025-10-21 23:17:07,527 - INFO - Set parameter LogToConsole to value 1
2025-10-21 23:17:07,527 - INFO - Set parameter LogFile to value ""
2025-10-21 23:17:07,527 - INFO - Set parameter Threads to value 12
2025-10-21 23:17:07,527 - INFO - Set parameter TimeLimit to value 3600
2025-10-21 23:17:07,527 - INFO - Set parameter OptimalityTol to value 0.0001
2025-10-21 23:17:07,527 - INFO - Set parameter IntFeasTol to value 1e-05
2025-10-21 23:17:07,527 - INFO - Set parameter StartNodeLimit to value 10000000
2025-10-21 23:17:07,586 - INFO - Set parameter TimeLimit to value 3600
2025-10-21 23:17:07,586 - INFO - 
2025-10-21 23:17:07,586 - INFO - 
2025-10-21 23:17:07,587 - INFO - Restarting solve
2025-10-21 23:17:07,587 - INFO - 
2025-10-21 23:17:07,587 - INFO - 
2025-10-21 23:17:07,588 - INFO - Gurobi Optimizer version 12.0.3 build v12.0.3rc0 (linux64 - "Ubuntu 20.04.6 LTS")
2025-10-21 23:17:07,588 - INFO - 
2025-10-21 23:17:07,588 - INFO - CPU model: Intel(R) Xeon(R) Platinum 8260 CPU @ 2.40GHz, instruction set [SSE2|AVX|AVX2|AVX512]
2025-10-21 23:17:07,588 - INFO - Thread count: 48 physical cores, 96 logical processors, using up to 12 threads
2025-10-21 23:17:07,588 - INFO - 
2025-10-21 23:17:07,589 - INFO - Non-default parameters:
2025-10-21 23:17:07,589 - INFO - TimeLimit  3600
2025-10-21 23:17:07,589 - INFO - OptimalityTol  0.0001
2025-10-21 23:17:07,589 - INFO - StartNodeLimit  10000000
2025-10-21 23:17:07,589 - INFO - Threads  12
2025-10-21 23:17:07,589 - INFO - 
2025-10-21 23:17:07,589 - INFO - Optimize a model with 5603 rows, 3584 columns and 15200 nonzeros
2025-10-21 23:17:07,589 - INFO - Model fingerprint: 0x8cee4341
2025-10-21 23:17:07,589 - INFO - Variable types: 1024 continuous, 2560 integer (2560 binary)
2025-10-21 23:17:07,589 - INFO - Coefficient statistics:
2025-10-21 23:17:07,589 - INFO -   Matrix range     [1e+00, 6e+14]
2025-10-21 23:17:07,589 - INFO -   Objective range  [5e+04, 3e+05]
2025-10-21 23:17:07,589 - INFO -   Bounds range     [1e+00, 3e+15]
2025-10-21 23:17:07,589 - INFO -   RHS range        [1e+00, 3e+15]
2025-10-21 23:17:07,589 - INFO - Warning: Model contains large matrix coefficient range
2025-10-21 23:17:07,589 - INFO - Warning: Model contains large rhs
2025-10-21 23:17:07,589 - INFO - Warning: Model contains large bounds
2025-10-21 23:17:07,589 - INFO -          Consider reformulating model or setting NumericFocus parameter
2025-10-21 23:17:07,589 - INFO -          to avoid numerical issues.
2025-10-21 23:17:07,605 - INFO - Presolve removed 4305 rows and 1986 columns
2025-10-21 23:17:07,605 - INFO - Presolve time: 0.01s
2025-10-21 23:17:07,605 - INFO - Presolved: 1298 rows, 1598 columns, 4470 nonzeros
2025-10-21 23:17:07,607 - INFO - Variable types: 0 continuous, 1598 integer (1095 binary)
2025-10-21 23:17:07,611 - INFO - Found heuristic solution: objective 8642853.0000
2025-10-21 23:17:07,613 - INFO - Found heuristic solution: objective 8338143.0000
2025-10-21 23:17:07,618 - INFO - 
2025-10-21 23:17:07,618 - INFO - Root relaxation: objective 5.558762e+06, 419 iterations, 0.00 seconds (0.00 work units)
2025-10-21 23:17:07,621 - INFO - 
2025-10-21 23:17:07,621 - INFO -     Nodes    |    Current Node    |     Objective Bounds      |     Work
2025-10-21 23:17:07,621 - INFO -  Expl Unexpl |  Obj  Depth IntInf | Incumbent    BestBd   Gap | It/Node Time
2025-10-21 23:17:07,621 - INFO - 
2025-10-21 23:17:07,621 - INFO -      0     0 5558762.00    0    7 8338143.00 5558762.00  33.3%     -    0s
2025-10-21 23:17:07,625 - INFO - H    0     0                    5558762.0000 5558762.00  0.00%     -    0s
2025-10-21 23:17:07,625 - INFO -      0     0 5558762.00    0    7 5558762.00 5558762.00  0.00%     -    0s
2025-10-21 23:17:07,627 - INFO - 
2025-10-21 23:17:07,627 - INFO - Explored 1 nodes (419 simplex iterations) in 0.04 seconds (0.03 work units)
2025-10-21 23:17:07,628 - INFO - Thread count was 12 (of 96 available processors)
2025-10-21 23:17:07,628 - INFO - 
2025-10-21 23:17:07,628 - INFO - Solution count 3: 5.55876e+06 8.33814e+06 8.64285e+06 
2025-10-21 23:17:07,628 - INFO - 
2025-10-21 23:17:07,628 - INFO - Optimal solution found (tolerance 1.00e-04)
2025-10-21 23:17:07,628 - INFO - Best objective 5.558762000000e+06, best bound 5.558762000000e+06, gap 0.0000%
2025-10-21 23:17:07,638 - INFO - 规划前的显存GB：3.0
2025-10-21 23:17:07,638 - INFO - 规划后的显存GB：2.5380959510803223
2025-10-21 23:17:07,639 - INFO - ✅ 最优策略：[1, 1, 1, 1, 1, 1, 1, 1, 1, 1, 1, 1, 1, 1, 1, 1]
2025-10-21 23:17:07,639 - INFO - 📌 checkpoint 的欧氏长度:, []
2025-10-21 23:17:07,639 - INFO - 📌 checkpoint 的余弦长度:, []
2025-10-21 23:17:07,639 - INFO - 💾 最终显存峰值：%.2f MB % 2444.3057861328125
2025-10-21 23:17:07,651 - INFO - Epoch 2 completed in 19.991364 seconds
2025-10-21 23:17:07,651 - INFO - torch.cuda.max_memory_reserved() : 0.919921875
2025-10-21 23:17:23,087 - INFO - Epoch 3 completed in 15.434953 seconds
2025-10-21 23:17:23,087 - INFO - 
====================== [第1个 Epoch 收集统计数据] ======================
2025-10-21 23:17:23,087 - INFO - 
🔍 EUCLIDEAN modules:
2025-10-21 23:17:23,087 - INFO - [Shapelet   6] forward_avg=0.002165s over 92 calls | peak=121.01MB | final=0.00MB
2025-10-21 23:17:23,087 - INFO - [Shapelet  12] forward_avg=0.002483s over 92 calls | peak=164.59MB | final=0.00MB
2025-10-21 23:17:23,087 - INFO - [Shapelet  18] forward_avg=0.002837s over 92 calls | peak=202.52MB | final=0.00MB
2025-10-21 23:17:23,087 - INFO - [Shapelet  24] forward_avg=0.003053s over 92 calls | peak=233.25MB | final=0.00MB
2025-10-21 23:17:23,087 - INFO - [Shapelet  30] forward_avg=0.002988s over 92 calls | peak=247.82MB | final=0.00MB
2025-10-21 23:17:23,087 - INFO - [Shapelet  36] forward_avg=0.003254s over 92 calls | peak=247.36MB | final=0.00MB
2025-10-21 23:17:23,087 - INFO - [Shapelet  42] forward_avg=0.003304s over 92 calls | peak=232.68MB | final=0.00MB
2025-10-21 23:17:23,087 - INFO - [Shapelet  49] forward_avg=0.002070s over 92 calls | peak=202.64MB | final=0.00MB
2025-10-21 23:17:23,087 - INFO - 
🔍 COSINE modules:
2025-10-21 23:17:23,088 - INFO - [Shapelet   6] forward_avg=0.002033s over 92 calls | peak=81.68MB | final=0.00MB
2025-10-21 23:17:23,088 - INFO - [Shapelet  12] forward_avg=0.002155s over 92 calls | peak=100.70MB | final=0.00MB
2025-10-21 23:17:23,088 - INFO - [Shapelet  18] forward_avg=0.002309s over 92 calls | peak=117.07MB | final=0.00MB
2025-10-21 23:17:23,088 - INFO - [Shapelet  24] forward_avg=0.002245s over 92 calls | peak=134.74MB | final=0.00MB
2025-10-21 23:17:23,088 - INFO - [Shapelet  30] forward_avg=0.002533s over 92 calls | peak=141.93MB | final=0.00MB
2025-10-21 23:17:23,088 - INFO - [Shapelet  36] forward_avg=0.002686s over 92 calls | peak=139.35MB | final=0.00MB
2025-10-21 23:17:23,088 - INFO - [Shapelet  42] forward_avg=0.002593s over 92 calls | peak=125.51MB | final=0.00MB
2025-10-21 23:17:23,088 - INFO - [Shapelet  49] forward_avg=0.001990s over 92 calls | peak=106.17MB | final=0.00MB
2025-10-21 23:17:23,088 - INFO - 
🔍 CROSS modules:
2025-10-21 23:17:23,088 - INFO - [Shapelet   6] forward_avg=0.000522s over 92 calls
2025-10-21 23:17:23,088 - INFO - [Shapelet  12] forward_avg=0.000482s over 92 calls
2025-10-21 23:17:23,088 - INFO - [Shapelet  18] forward_avg=0.000560s over 92 calls
2025-10-21 23:17:23,088 - INFO - [Shapelet  24] forward_avg=0.000640s over 92 calls
2025-10-21 23:17:23,088 - INFO - [Shapelet  30] forward_avg=0.000720s over 92 calls
2025-10-21 23:17:23,088 - INFO - [Shapelet  36] forward_avg=0.000816s over 92 calls
2025-10-21 23:17:23,088 - INFO - [Shapelet  42] forward_avg=0.000892s over 92 calls
2025-10-21 23:17:23,088 - INFO - [Shapelet  49] forward_avg=0.001010s over 92 calls
2025-10-21 23:17:23,088 - INFO - 
💾 模型第一次反向传播阶段的显存峰值（所有模块中的最大值）: 2780.89 MB
2025-10-21 23:17:23,088 - INFO - 
💾 模型初始显存: 18.32 MB
2025-10-21 23:17:23,088 - INFO - =======================================================================

2025-10-21 23:17:23,088 - INFO - torch.cuda.max_memory_reserved() : 3.107421875
2025-10-21 23:17:37,995 - INFO - Epoch 4 completed in 14.906074 seconds
2025-10-21 23:17:37,995 - INFO - torch.cuda.max_memory_reserved() : 3.107421875
2025-10-21 23:17:53,206 - INFO - Epoch 5 completed in 15.209669 seconds
2025-10-21 23:17:53,206 - INFO - torch.cuda.max_memory_reserved() : 3.107421875
2025-10-21 23:18:08,448 - INFO - Epoch 6 completed in 15.241482 seconds
2025-10-21 23:18:08,449 - INFO - torch.cuda.max_memory_reserved() : 3.107421875
2025-10-21 23:18:23,512 - INFO - Epoch 7 completed in 15.062421 seconds
2025-10-21 23:18:23,512 - INFO - torch.cuda.max_memory_reserved() : 3.107421875
2025-10-21 23:18:38,632 - INFO - Epoch 8 completed in 15.119341 seconds
2025-10-21 23:18:38,632 - INFO - torch.cuda.max_memory_reserved() : 3.107421875
2025-10-21 23:18:53,591 - INFO - Epoch 9 completed in 14.958106 seconds
2025-10-21 23:18:53,591 - INFO - torch.cuda.max_memory_reserved() : 3.107421875
2025-10-21 23:19:08,771 - INFO - Epoch 10 completed in 15.179129 seconds
2025-10-21 23:22:23,181 - INFO - torch.cuda.max_memory_reserved() : 3.107421875
2025-10-21 23:22:23,182 - INFO - !!!采用策略后的几个epoch 平均时间:15.138897001743317
2025-10-21 23:22:23,182 - INFO - 



